1 3 100 682547.70
1 3 200 685300.14
1 3 300 697191.37
2 3 100 689807.24
2 3 200 698763.38
2 3 300 714114.32
3 3 100 696078.80
3 3 200 707561.07
3 3 300 715383.89
4 3 100 684326.50
4 3 200 703343.43
4 3 300 711733.77
5 3 100 695941.63
5 3 200 693971.93
5 3 300 703366.10
